\ENCODING=ISO-8859-1
\Problem name: ilog.cplex

Maximize
 obj: 51 x(0)#0 + 79 x(1)#1 + 73 x(2)#2 + 70 x(3)#3 + 53 x(4)#4 + 53 x(5)#5
      + 51 x(6)#6 + 84 x(7)#7 + 72 x(8)#8 + 68 x(9)#9 + 89 x(10)#10
      + 65 x(11)#11 + 62 x(12)#12 + 96 x(13)#13 + 76 x(14)#14 + 78 x(15)#15
      + 94 x(16)#16 + 63 x(17)#17 + 82 x(18)#18 + 61 x(19)#19 + 66 x(20)#20
      + 55 x(21)#21 + 60 x(22)#22 + 63 x(23)#23 + 50 x(24)#24 + 63 x(25)#25
      + 91 x(26)#26 + 65 x(27)#27 + 64 x(28)#28 + 55 x(29)#29 + 80 x(30)#30
      + 74 x(31)#31 + 95 x(32)#32 + 96 x(33)#33 + 56 x(34)#34 + 90 x(35)#35
      + 91 x(36)#36 + 60 x(37)#37 + 59 x(38)#38 + 68 x(39)#39 + 80 x(40)#40
      + 82 x(41)#41 + 100 x(42)#42 + 70 x(43)#43 + 52 x(44)#44 + 79 x(45)#45
      + 62 x(46)#46 + 51 x(47)#47 + 78 x(48)#48 + 95 x(49)#49 + 56 x(50)#50
      + 81 x(51)#51 + 75 x(52)#52 + 50 x(53)#53 + 80 x(54)#54 + 84 x(55)#55
      + 83 x(56)#56 + 92 x(57)#57 + 54 x(58)#58 + 72 x(59)#59 + 57 x(60)#60
      + 87 x(61)#61 + 84 x(62)#62 + 53 x(63)#63 + 94 x(64)#64 + 75 x(65)#65
      + 79 x(66)#66 + 63 x(67)#67 + 84 x(68)#68 + 57 x(69)#69 + 60 x(70)#70
      + 92 x(71)#71 + 92 x(72)#72 + 60 x(73)#73 + 53 x(74)#74 + 72 x(75)#75
      + 82 x(76)#76 + 69 x(77)#77 + 84 x(78)#78 + 88 x(79)#79 + 58 x(80)#80
      + 70 x(81)#81 + 85 x(82)#82 + 82 x(83)#83 + 55 x(84)#84 + 60 x(85)#85
      + 93 x(86)#86 + 87 x(87)#87 + 95 x(88)#88 + 81 x(89)#89 + 67 x(90)#90
      + 53 x(91)#91 + 65 x(92)#92 + 76 x(93)#93 + 69 x(94)#94 + 92 x(95)#95
      + 71 x(96)#96 + 76 x(97)#97 + 76 x(98)#98 + 61 x(99)#99
Subject To
 c1:  8 x(0)#0 + 15 x(1)#1 + 13 x(2)#2 + 9 x(3)#3 + 10 x(4)#4 + 10 x(5)#5
      + 5 x(6)#6 + 16 x(7)#7 + 14 x(8)#8 + 9 x(9)#9 + 14 x(10)#10 + 10 x(11)#11
      + 11 x(12)#12 + 15 x(13)#13 + 8 x(14)#14 + 8 x(15)#15 + 15 x(16)#16
      + 6 x(17)#17 + 8 x(18)#18 + 8 x(19)#19 + 10 x(20)#20 + 8 x(21)#21
      + 6 x(22)#22 + 10 x(23)#23 + 10 x(24)#24 + 10 x(25)#25 + 19 x(26)#26
      + 10 x(27)#27 + 10 x(28)#28 + 10 x(29)#29 + 9 x(30)#30 + 7 x(31)#31
      + 10 x(32)#32 + 15 x(33)#33 + 9 x(34)#34 + 11 x(35)#35 + 13 x(36)#36
      + 8 x(37)#37 + 12 x(38)#38 + 12 x(39)#39 + 15 x(40)#40 + 17 x(41)#41
      + 14 x(42)#42 + 10 x(43)#43 + 8 x(44)#44 + 14 x(45)#45 + 11 x(46)#46
      + 10 x(47)#47 + 10 x(48)#48 + 18 x(49)#49 + 6 x(50)#50 + 9 x(51)#51
      + 10 x(52)#52 + 9 x(53)#53 + 8 x(54)#54 + 12 x(55)#55 + 14 x(56)#56
      + 10 x(57)#57 + 6 x(58)#58 + 9 x(59)#59 + 7 x(60)#60 + 13 x(61)#61
      + 8 x(62)#62 + 7 x(63)#63 + 11 x(64)#64 + 10 x(65)#65 + 8 x(66)#66
      + 8 x(67)#67 + 14 x(68)#68 + 9 x(69)#69 + 8 x(70)#70 + 16 x(71)#71
      + 9 x(72)#72 + 9 x(73)#73 + 9 x(74)#74 + 11 x(75)#75 + 16 x(76)#76
      + 11 x(77)#77 + 16 x(78)#78 + 17 x(79)#79 + 12 x(80)#80 + 10 x(81)#81
      + 12 x(82)#82 + 12 x(83)#83 + 7 x(84)#84 + 7 x(85)#85 + 14 x(86)#86
      + 9 x(87)#87 + 18 x(88)#88 + 11 x(89)#89 + 13 x(90)#90 + 8 x(91)#91
      + 7 x(92)#92 + 8 x(93)#93 + 9 x(94)#94 + 14 x(95)#95 + 8 x(96)#96
      + 14 x(97)#97 + 8 x(98)#98 + 9 x(99)#99 <= 534
 c2:  7 x(0)#0 + 10 x(1)#1 + 8 x(2)#2 + 11 x(3)#3 + 5 x(4)#4 + 5 x(5)#5
      + 7 x(6)#6 + 16 x(7)#7 + 14 x(8)#8 + 10 x(9)#9 + 18 x(10)#10 + 8 x(11)#11
      + 9 x(12)#12 + 17 x(13)#13 + 14 x(14)#14 + 11 x(15)#15 + 16 x(16)#16
      + 11 x(17)#17 + 15 x(18)#18 + 8 x(19)#19 + 13 x(20)#20 + 8 x(21)#21
      + 7 x(22)#22 + 13 x(23)#23 + 10 x(24)#24 + 9 x(25)#25 + 10 x(26)#26
      + 13 x(27)#27 + 11 x(28)#28 + 10 x(29)#29 + 12 x(30)#30 + 14 x(31)#31
      + 13 x(32)#32 + 16 x(33)#33 + 9 x(34)#34 + 10 x(35)#35 + 18 x(36)#36
      + 11 x(37)#37 + 12 x(38)#38 + 10 x(39)#39 + 16 x(40)#40 + 16 x(41)#41
      + 14 x(42)#42 + 12 x(43)#43 + 6 x(44)#44 + 12 x(45)#45 + 10 x(46)#46
      + 7 x(47)#47 + 11 x(48)#48 + 10 x(49)#49 + 10 x(50)#50 + 9 x(51)#51
      + 15 x(52)#52 + 9 x(53)#53 + 15 x(54)#54 + 16 x(55)#55 + 9 x(56)#56
      + 14 x(57)#57 + 10 x(58)#58 + 12 x(59)#59 + 9 x(60)#60 + 11 x(61)#61
      + 9 x(62)#62 + 8 x(63)#63 + 12 x(64)#64 + 7 x(65)#65 + 9 x(66)#66
      + 9 x(67)#67 + 16 x(68)#68 + 8 x(69)#69 + 11 x(70)#70 + 17 x(71)#71
      + 13 x(72)#72 + 11 x(73)#73 + 10 x(74)#74 + 9 x(75)#75 + 13 x(76)#76
      + 8 x(77)#77 + 11 x(78)#78 + 9 x(79)#79 + 11 x(80)#80 + 7 x(81)#81
      + 9 x(82)#82 + 10 x(83)#83 + 5 x(84)#84 + 9 x(85)#85 + 13 x(86)#86
      + 10 x(87)#87 + 18 x(88)#88 + 13 x(89)#89 + 11 x(90)#90 + 11 x(91)#91
      + 12 x(92)#92 + 11 x(93)#93 + 7 x(94)#94 + 12 x(95)#95 + 7 x(96)#96
      + 11 x(97)#97 + 13 x(98)#98 + 9 x(99)#99 <= 550
 c3:  10 x(0)#0 + 16 x(1)#1 + 15 x(2)#2 + 12 x(3)#3 + 8 x(4)#4 + 7 x(5)#5
      + 5 x(6)#6 + 8 x(7)#7 + 11 x(8)#8 + 12 x(9)#9 + 15 x(10)#10 + 11 x(11)#11
      + 11 x(12)#12 + 18 x(13)#13 + 11 x(14)#14 + 9 x(15)#15 + 13 x(16)#16
      + 12 x(17)#17 + 16 x(18)#18 + 8 x(19)#19 + 12 x(20)#20 + 8 x(21)#21
      + 10 x(22)#22 + 11 x(23)#23 + 9 x(24)#24 + 13 x(25)#25 + 11 x(26)#26
      + 9 x(27)#27 + 7 x(28)#28 + 11 x(29)#29 + 14 x(30)#30 + 12 x(31)#31
      + 12 x(32)#32 + 12 x(33)#33 + 9 x(34)#34 + 11 x(35)#35 + 9 x(36)#36
      + 11 x(37)#37 + 11 x(38)#38 + 13 x(39)#39 + 11 x(40)#40 + 14 x(41)#41
      + 18 x(42)#42 + 13 x(43)#43 + 6 x(44)#44 + 10 x(45)#45 + 11 x(46)#46
      + 9 x(47)#47 + 15 x(48)#48 + 16 x(49)#49 + 7 x(50)#50 + 13 x(51)#51
      + 10 x(52)#52 + 10 x(53)#53 + 15 x(54)#54 + 10 x(55)#55 + 13 x(56)#56
      + 13 x(57)#57 + 9 x(58)#58 + 13 x(59)#59 + 8 x(60)#60 + 12 x(61)#61
      + 14 x(62)#62 + 6 x(63)#63 + 14 x(64)#64 + 15 x(65)#65 + 15 x(66)#66
      + 12 x(67)#67 + 17 x(68)#68 + 10 x(69)#69 + 10 x(70)#70 + 9 x(71)#71
      + 12 x(72)#72 + 10 x(73)#73 + 5 x(74)#74 + 13 x(75)#75 + 14 x(76)#76
      + 9 x(77)#77 + 17 x(78)#78 + 15 x(79)#79 + 9 x(80)#80 + 7 x(81)#81
      + 8 x(82)#82 + 13 x(83)#83 + 10 x(84)#84 + 12 x(85)#85 + 18 x(86)#86
      + 10 x(87)#87 + 10 x(88)#88 + 12 x(89)#89 + 10 x(90)#90 + 9 x(91)#91
      + 10 x(92)#92 + 15 x(93)#93 + 14 x(94)#94 + 18 x(95)#95 + 9 x(96)#96
      + 12 x(97)#97 + 12 x(98)#98 + 11 x(99)#99 <= 572
 c4:  10 x(0)#0 + 12 x(1)#1 + 9 x(2)#2 + 10 x(3)#3 + 8 x(4)#4 + 7 x(5)#5
      + 9 x(6)#6 + 16 x(7)#7 + 9 x(8)#8 + 7 x(9)#9 + 10 x(10)#10 + 9 x(11)#11
      + 11 x(12)#12 + 15 x(13)#13 + 15 x(14)#14 + 15 x(15)#15 + 10 x(16)#16
      + 8 x(17)#17 + 13 x(18)#18 + 12 x(19)#19 + 11 x(20)#20 + 9 x(21)#21
      + 7 x(22)#22 + 10 x(23)#23 + 10 x(24)#24 + 11 x(25)#25 + 9 x(26)#26
      + 11 x(27)#27 + 9 x(28)#28 + 11 x(29)#29 + 15 x(30)#30 + 7 x(31)#31
      + 12 x(32)#32 + 11 x(33)#33 + 7 x(34)#34 + 15 x(35)#35 + 19 x(36)#36
      + 8 x(37)#37 + 10 x(38)#38 + 7 x(39)#39 + 11 x(40)#40 + 17 x(41)#41
      + 11 x(42)#42 + 11 x(43)#43 + 10 x(44)#44 + 12 x(45)#45 + 6 x(46)#46
      + 8 x(47)#47 + 8 x(48)#48 + 17 x(49)#49 + 10 x(50)#50 + 11 x(51)#51
      + 9 x(52)#52 + 6 x(53)#53 + 15 x(54)#54 + 14 x(55)#55 + 9 x(56)#56
      + 9 x(57)#57 + 8 x(58)#58 + 15 x(59)#59 + 7 x(60)#60 + 12 x(61)#61
      + 9 x(62)#62 + 7 x(63)#63 + 11 x(64)#64 + 15 x(65)#65 + 14 x(66)#66
      + 6 x(67)#67 + 12 x(68)#68 + 10 x(69)#69 + 6 x(70)#70 + 19 x(71)#71
      + 16 x(72)#72 + 8 x(73)#73 + 5 x(74)#74 + 13 x(75)#75 + 16 x(76)#76
      + 14 x(77)#77 + 10 x(78)#78 + 14 x(79)#79 + 6 x(80)#80 + 12 x(81)#81
      + 17 x(82)#82 + 16 x(83)#83 + 7 x(84)#84 + 8 x(85)#85 + 13 x(86)#86
      + 15 x(87)#87 + 17 x(88)#88 + 10 x(89)#89 + 13 x(90)#90 + 11 x(91)#91
      + 11 x(92)#92 + 14 x(93)#93 + 8 x(94)#94 + 18 x(95)#95 + 14 x(96)#96
      + 13 x(97)#97 + 14 x(98)#98 + 11 x(99)#99 <= 556
 c5:  6 x(0)#0 + 10 x(1)#1 + 11 x(2)#2 + 8 x(3)#3 + 6 x(4)#4 + 8 x(5)#5
      + 7 x(6)#6 + 15 x(7)#7 + 8 x(8)#8 + 9 x(9)#9 + 9 x(10)#10 + 13 x(11)#11
      + 10 x(12)#12 + 19 x(13)#13 + 13 x(14)#14 + 15 x(15)#15 + 18 x(16)#16
      + 7 x(17)#17 + 8 x(18)#18 + 6 x(19)#19 + 9 x(20)#20 + 7 x(21)#21
      + 10 x(22)#22 + 9 x(23)#23 + 9 x(24)#24 + 7 x(25)#25 + 14 x(26)#26
      + 7 x(27)#27 + 7 x(28)#28 + 11 x(29)#29 + 8 x(30)#30 + 10 x(31)#31
      + 11 x(32)#32 + 12 x(33)#33 + 11 x(34)#34 + 14 x(35)#35 + 15 x(36)#36
      + 12 x(37)#37 + 11 x(38)#38 + 7 x(39)#39 + 9 x(40)#40 + 9 x(41)#41
      + 19 x(42)#42 + 12 x(43)#43 + 10 x(44)#44 + 15 x(45)#45 + 12 x(46)#46
      + 5 x(47)#47 + 8 x(48)#48 + 10 x(49)#49 + 10 x(50)#50 + 12 x(51)#51
      + 14 x(52)#52 + 5 x(53)#53 + 14 x(54)#54 + 17 x(55)#55 + 13 x(56)#56
      + 11 x(57)#57 + 9 x(58)#58 + 10 x(59)#59 + 6 x(60)#60 + 10 x(61)#61
      + 16 x(62)#62 + 6 x(63)#63 + 15 x(64)#64 + 13 x(65)#65 + 10 x(66)#66
      + 8 x(67)#67 + 9 x(68)#68 + 10 x(69)#69 + 8 x(70)#70 + 10 x(71)#71
      + 16 x(72)#72 + 11 x(73)#73 + 9 x(74)#74 + 11 x(75)#75 + 10 x(76)#76
      + 14 x(77)#77 + 12 x(78)#78 + 13 x(79)#79 + 8 x(80)#80 + 14 x(81)#81
      + 12 x(82)#82 + 9 x(83)#83 + 6 x(84)#84 + 6 x(85)#85 + 13 x(86)#86
      + 8 x(87)#87 + 11 x(88)#88 + 14 x(89)#89 + 12 x(90)#90 + 10 x(91)#91
      + 11 x(92)#92 + 11 x(93)#93 + 9 x(94)#94 + 12 x(95)#95 + 14 x(96)#96
      + 16 x(97)#97 + 13 x(98)#98 + 9 x(99)#99 <= 533
 c6:  7 x(0)#0 + 14 x(1)#1 + 13 x(2)#2 + 11 x(3)#3 + 10 x(4)#4 + 9 x(5)#5
      + 7 x(6)#6 + 16 x(7)#7 + 7 x(8)#8 + 9 x(9)#9 + 16 x(10)#10 + 11 x(11)#11
      + 10 x(12)#12 + 14 x(13)#13 + 7 x(14)#14 + 10 x(15)#15 + 13 x(16)#16
      + 9 x(17)#17 + 14 x(18)#18 + 7 x(19)#19 + 12 x(20)#20 + 10 x(21)#21
      + 7 x(22)#22 + 6 x(23)#23 + 7 x(24)#24 + 12 x(25)#25 + 12 x(26)#26
      + 11 x(27)#27 + 9 x(28)#28 + 8 x(29)#29 + 11 x(30)#30 + 15 x(31)#31
      + 14 x(32)#32 + 19 x(33)#33 + 10 x(34)#34 + 12 x(35)#35 + 16 x(36)#36
      + 7 x(37)#37 + 11 x(38)#38 + 8 x(39)#39 + 12 x(40)#40 + 9 x(41)#41
      + 13 x(42)#42 + 10 x(43)#43 + 9 x(44)#44 + 15 x(45)#45 + 12 x(46)#46
      + 8 x(47)#47 + 14 x(48)#48 + 19 x(49)#49 + 10 x(50)#50 + 15 x(51)#51
      + 13 x(52)#52 + 6 x(53)#53 + 16 x(54)#54 + 10 x(55)#55 + 10 x(56)#56
      + 13 x(57)#57 + 8 x(58)#58 + 7 x(59)#59 + 10 x(60)#60 + 11 x(61)#61
      + 8 x(62)#62 + 8 x(63)#63 + 17 x(64)#64 + 13 x(65)#65 + 14 x(66)#66
      + 12 x(67)#67 + 11 x(68)#68 + 6 x(69)#69 + 9 x(70)#70 + 15 x(71)#71
      + 11 x(72)#72 + 10 x(73)#73 + 10 x(74)#74 + 12 x(75)#75 + 8 x(76)#76
      + 12 x(77)#77 + 17 x(78)#78 + 10 x(79)#79 + 11 x(80)#80 + 8 x(81)#81
      + 9 x(82)#82 + 17 x(83)#83 + 10 x(84)#84 + 7 x(85)#85 + 9 x(86)#86
      + 9 x(87)#87 + 10 x(88)#88 + 12 x(89)#89 + 8 x(90)#90 + 7 x(91)#91
      + 8 x(92)#92 + 11 x(93)#93 + 12 x(94)#94 + 16 x(95)#95 + 14 x(96)#96
      + 15 x(97)#97 + 15 x(98)#98 + 10 x(99)#99 <= 551
 c7:  5 x(0)#0 + 8 x(1)#1 + 13 x(2)#2 + 7 x(3)#3 + 8 x(4)#4 + 9 x(5)#5
      + 6 x(6)#6 + 16 x(7)#7 + 8 x(8)#8 + 11 x(9)#9 + 12 x(10)#10 + 11 x(11)#11
      + 8 x(12)#12 + 16 x(13)#13 + 11 x(14)#14 + 14 x(15)#15 + 18 x(16)#16
      + 13 x(17)#17 + 13 x(18)#18 + 11 x(19)#19 + 9 x(20)#20 + 10 x(21)#21
      + 12 x(22)#22 + 8 x(23)#23 + 7 x(24)#24 + 9 x(25)#25 + 13 x(26)#26
      + 8 x(27)#27 + 8 x(28)#28 + 10 x(29)#29 + 13 x(30)#30 + 11 x(31)#31
      + 14 x(32)#32 + 12 x(33)#33 + 9 x(34)#34 + 12 x(35)#35 + 16 x(36)#36
      + 6 x(37)#37 + 8 x(38)#38 + 12 x(39)#39 + 12 x(40)#40 + 8 x(41)#41
      + 17 x(42)#42 + 9 x(43)#43 + 11 x(44)#44 + 11 x(45)#45 + 12 x(46)#46
      + 10 x(47)#47 + 14 x(48)#48 + 17 x(49)#49 + 8 x(50)#50 + 14 x(51)#51
      + 7 x(52)#52 + 8 x(53)#53 + 13 x(54)#54 + 13 x(55)#55 + 10 x(56)#56
      + 12 x(57)#57 + 5 x(58)#58 + 14 x(59)#59 + 11 x(60)#60 + 12 x(61)#61
      + 15 x(62)#62 + 6 x(63)#63 + 14 x(64)#64 + 12 x(65)#65 + 15 x(66)#66
      + 6 x(67)#67 + 11 x(68)#68 + 8 x(69)#69 + 10 x(70)#70 + 13 x(71)#71
      + 17 x(72)#72 + 11 x(73)#73 + 6 x(74)#74 + 8 x(75)#75 + 13 x(76)#76
      + 11 x(77)#77 + 17 x(78)#78 + 14 x(79)#79 + 7 x(80)#80 + 12 x(81)#81
      + 13 x(82)#82 + 8 x(83)#83 + 7 x(84)#84 + 9 x(85)#85 + 14 x(86)#86
      + 14 x(87)#87 + 14 x(88)#88 + 15 x(89)#89 + 13 x(90)#90 + 10 x(91)#91
      + 7 x(92)#92 + 11 x(93)#93 + 12 x(94)#94 + 16 x(95)#95 + 14 x(96)#96
      + 12 x(97)#97 + 8 x(98)#98 + 8 x(99)#99 <= 552
 c8:  10 x(0)#0 + 13 x(1)#1 + 7 x(2)#2 + 13 x(3)#3 + 5 x(4)#4 + 8 x(5)#5
      + 8 x(6)#6 + 10 x(7)#7 + 7 x(8)#8 + 10 x(9)#9 + 10 x(10)#10 + 8 x(11)#11
      + 6 x(12)#12 + 12 x(13)#13 + 9 x(14)#14 + 13 x(15)#15 + 19 x(16)#16
      + 6 x(17)#17 + 11 x(18)#18 + 9 x(19)#19 + 11 x(20)#20 + 11 x(21)#21
      + 9 x(22)#22 + 7 x(23)#23 + 7 x(24)#24 + 9 x(25)#25 + 17 x(26)#26
      + 8 x(27)#27 + 6 x(28)#28 + 6 x(29)#29 + 16 x(30)#30 + 7 x(31)#31
      + 10 x(32)#32 + 12 x(33)#33 + 7 x(34)#34 + 18 x(35)#35 + 9 x(36)#36
      + 7 x(37)#37 + 8 x(38)#38 + 11 x(39)#39 + 15 x(40)#40 + 10 x(41)#41
      + 15 x(42)#42 + 12 x(43)#43 + 11 x(44)#44 + 11 x(45)#45 + 7 x(46)#46
      + 6 x(47)#47 + 8 x(48)#48 + 11 x(49)#49 + 8 x(50)#50 + 10 x(51)#51
      + 10 x(52)#52 + 6 x(53)#53 + 9 x(54)#54 + 15 x(55)#55 + 9 x(56)#56
      + 9 x(57)#57 + 6 x(58)#58 + 9 x(59)#59 + 9 x(60)#60 + 14 x(61)#61
      + 13 x(62)#62 + 5 x(63)#63 + 10 x(64)#64 + 8 x(65)#65 + 9 x(66)#66
      + 7 x(67)#67 + 16 x(68)#68 + 11 x(69)#69 + 12 x(70)#70 + 15 x(71)#71
      + 19 x(72)#72 + 11 x(73)#73 + 9 x(74)#74 + 7 x(75)#75 + 11 x(76)#76
      + 14 x(77)#77 + 15 x(78)#78 + 16 x(79)#79 + 10 x(80)#80 + 8 x(81)#81
      + 12 x(82)#82 + 9 x(83)#83 + 10 x(84)#84 + 7 x(85)#85 + 16 x(86)#86
      + 16 x(87)#87 + 17 x(88)#88 + 11 x(89)#89 + 13 x(90)#90 + 11 x(91)#91
      + 8 x(92)#92 + 13 x(93)#93 + 10 x(94)#94 + 9 x(95)#95 + 11 x(96)#96
      + 8 x(97)#97 + 14 x(98)#98 + 12 x(99)#99 <= 521
 c9:  6 x(0)#0 + 10 x(1)#1 + 10 x(2)#2 + 7 x(3)#3 + 10 x(4)#4 + 10 x(5)#5
      + 8 x(6)#6 + 11 x(7)#7 + 14 x(8)#8 + 12 x(9)#9 + 12 x(10)#10 + 8 x(11)#11
      + 10 x(12)#12 + 17 x(13)#13 + 13 x(14)#14 + 8 x(15)#15 + 19 x(16)#16
      + 11 x(17)#17 + 9 x(18)#18 + 6 x(19)#19 + 6 x(20)#20 + 6 x(21)#21
      + 6 x(22)#22 + 11 x(23)#23 + 9 x(24)#24 + 13 x(25)#25 + 9 x(26)#26
      + 8 x(27)#27 + 10 x(28)#28 + 8 x(29)#29 + 9 x(30)#30 + 14 x(31)#31
      + 18 x(32)#32 + 15 x(33)#33 + 11 x(34)#34 + 10 x(35)#35 + 14 x(36)#36
      + 9 x(37)#37 + 10 x(38)#38 + 8 x(39)#39 + 9 x(40)#40 + 12 x(41)#41
      + 12 x(42)#42 + 12 x(43)#43 + 9 x(44)#44 + 16 x(45)#45 + 8 x(46)#46
      + 5 x(47)#47 + 9 x(48)#48 + 15 x(49)#49 + 11 x(50)#50 + 10 x(51)#51
      + 15 x(52)#52 + 5 x(53)#53 + 16 x(54)#54 + 16 x(55)#55 + 17 x(56)#56
      + 10 x(57)#57 + 9 x(58)#58 + 13 x(59)#59 + 11 x(60)#60 + 12 x(61)#61
      + 9 x(62)#62 + 11 x(63)#63 + 15 x(64)#64 + 13 x(65)#65 + 14 x(66)#66
      + 9 x(67)#67 + 16 x(68)#68 + 10 x(69)#69 + 12 x(70)#70 + 12 x(71)#71
      + 15 x(72)#72 + 8 x(73)#73 + 11 x(74)#74 + 11 x(75)#75 + 11 x(76)#76
      + 10 x(77)#77 + 11 x(78)#78 + 17 x(79)#79 + 7 x(80)#80 + 10 x(81)#81
      + 17 x(82)#82 + 11 x(83)#83 + 8 x(84)#84 + 12 x(85)#85 + 17 x(86)#86
      + 11 x(87)#87 + 18 x(88)#88 + 13 x(89)#89 + 8 x(90)#90 + 8 x(91)#91
      + 9 x(92)#92 + 9 x(93)#93 + 12 x(94)#94 + 16 x(95)#95 + 12 x(96)#96
      + 12 x(97)#97 + 10 x(98)#98 + 11 x(99)#99 <= 556
 c10: 6 x(0)#0 + 10 x(1)#1 + 8 x(2)#2 + 9 x(3)#3 + 10 x(4)#4 + 7 x(5)#5
      + 5 x(6)#6 + 12 x(7)#7 + 10 x(8)#8 + 11 x(9)#9 + 18 x(10)#10
      + 10 x(11)#11 + 6 x(12)#12 + 10 x(13)#13 + 10 x(14)#14 + 10 x(15)#15
      + 15 x(16)#16 + 13 x(17)#17 + 11 x(18)#18 + 10 x(19)#19 + 8 x(20)#20
      + 10 x(21)#21 + 9 x(22)#22 + 7 x(23)#23 + 9 x(24)#24 + 10 x(25)#25
      + 15 x(26)#26 + 9 x(27)#27 + 7 x(28)#28 + 8 x(29)#29 + 16 x(30)#30
      + 12 x(31)#31 + 10 x(32)#32 + 11 x(33)#33 + 6 x(34)#34 + 12 x(35)#35
      + 16 x(36)#36 + 10 x(37)#37 + 7 x(38)#38 + 8 x(39)#39 + 14 x(40)#40
      + 14 x(41)#41 + 15 x(42)#42 + 12 x(43)#43 + 11 x(44)#44 + 11 x(45)#45
      + 12 x(46)#46 + 6 x(47)#47 + 12 x(48)#48 + 17 x(49)#49 + 5 x(50)#50
      + 14 x(51)#51 + 10 x(52)#52 + 10 x(53)#53 + 10 x(54)#54 + 12 x(55)#55
      + 9 x(56)#56 + 12 x(57)#57 + 6 x(58)#58 + 11 x(59)#59 + 9 x(60)#60
      + 15 x(61)#61 + 10 x(62)#62 + 7 x(63)#63 + 16 x(64)#64 + 13 x(65)#65
      + 14 x(66)#66 + 11 x(67)#67 + 16 x(68)#68 + 10 x(69)#69 + 9 x(70)#70
      + 9 x(71)#71 + 18 x(72)#72 + 6 x(73)#73 + 7 x(74)#74 + 13 x(75)#75
      + 14 x(76)#76 + 6 x(77)#77 + 17 x(78)#78 + 11 x(79)#79 + 6 x(80)#80
      + 9 x(81)#81 + 14 x(82)#82 + 11 x(83)#83 + 9 x(84)#84 + 10 x(85)#85
      + 10 x(86)#86 + 13 x(87)#87 + 16 x(88)#88 + 10 x(89)#89 + 13 x(90)#90
      + 6 x(91)#91 + 13 x(92)#92 + 10 x(93)#93 + 14 x(94)#94 + 11 x(95)#95
      + 11 x(96)#96 + 12 x(97)#97 + 13 x(98)#98 + 10 x(99)#99 <= 538
 c11: 10 x(0)#0 + 16 x(1)#1 + 9 x(2)#2 + 9 x(3)#3 + 6 x(4)#4 + 7 x(5)#5
      + 9 x(6)#6 + 8 x(7)#7 + 13 x(8)#8 + 6 x(9)#9 + 9 x(10)#10 + 7 x(11)#11
      + 9 x(12)#12 + 16 x(13)#13 + 8 x(14)#14 + 9 x(15)#15 + 19 x(16)#16
      + 8 x(17)#17 + 13 x(18)#18 + 9 x(19)#19 + 7 x(20)#20 + 7 x(21)#21
      + 6 x(22)#22 + 11 x(23)#23 + 7 x(24)#24 + 12 x(25)#25 + 14 x(26)#26
      + 8 x(27)#27 + 13 x(28)#28 + 10 x(29)#29 + 16 x(30)#30 + 8 x(31)#31
      + 19 x(32)#32 + 16 x(33)#33 + 6 x(34)#34 + 10 x(35)#35 + 16 x(36)#36
      + 6 x(37)#37 + 8 x(38)#38 + 10 x(39)#39 + 16 x(40)#40 + 11 x(41)#41
      + 20 x(42)#42 + 11 x(43)#43 + 8 x(44)#44 + 10 x(45)#45 + 7 x(46)#46
      + 10 x(47)#47 + 9 x(48)#48 + 17 x(49)#49 + 8 x(50)#50 + 13 x(51)#51
      + 14 x(52)#52 + 6 x(53)#53 + 15 x(54)#54 + 8 x(55)#55 + 16 x(56)#56
      + 10 x(57)#57 + 11 x(58)#58 + 7 x(59)#59 + 10 x(60)#60 + 12 x(61)#61
      + 14 x(62)#62 + 6 x(63)#63 + 10 x(64)#64 + 11 x(65)#65 + 7 x(66)#66
      + 6 x(67)#67 + 10 x(68)#68 + 6 x(69)#69 + 8 x(70)#70 + 9 x(71)#71
      + 15 x(72)#72 + 6 x(73)#73 + 7 x(74)#74 + 11 x(75)#75 + 13 x(76)#76
      + 7 x(77)#77 + 13 x(78)#78 + 17 x(79)#79 + 11 x(80)#80 + 14 x(81)#81
      + 15 x(82)#82 + 10 x(83)#83 + 7 x(84)#84 + 8 x(85)#85 + 18 x(86)#86
      + 8 x(87)#87 + 17 x(88)#88 + 16 x(89)#89 + 7 x(90)#90 + 7 x(91)#91
      + 8 x(92)#92 + 7 x(93)#93 + 10 x(94)#94 + 19 x(95)#95 + 12 x(96)#96
      + 9 x(97)#97 + 13 x(98)#98 + 12 x(99)#99 <= 531
 c12: 5 x(0)#0 + 12 x(1)#1 + 14 x(2)#2 + 12 x(3)#3 + 8 x(4)#4 + 10 x(5)#5
      + 9 x(6)#6 + 9 x(7)#7 + 13 x(8)#8 + 8 x(9)#9 + 15 x(10)#10 + 7 x(11)#11
      + 9 x(12)#12 + 13 x(13)#13 + 15 x(14)#14 + 11 x(15)#15 + 10 x(16)#16
      + 10 x(17)#17 + 10 x(18)#18 + 9 x(19)#19 + 8 x(20)#20 + 8 x(21)#21
      + 6 x(22)#22 + 10 x(23)#23 + 5 x(24)#24 + 8 x(25)#25 + 11 x(26)#26
      + 9 x(27)#27 + 13 x(28)#28 + 11 x(29)#29 + 14 x(30)#30 + 9 x(31)#31
      + 15 x(32)#32 + 18 x(33)#33 + 9 x(34)#34 + 14 x(35)#35 + 9 x(36)#36
      + 12 x(37)#37 + 7 x(38)#38 + 7 x(39)#39 + 9 x(40)#40 + 15 x(41)#41
      + 13 x(42)#42 + 11 x(43)#43 + 8 x(44)#44 + 15 x(45)#45 + 10 x(46)#46
      + 9 x(47)#47 + 14 x(48)#48 + 13 x(49)#49 + 10 x(50)#50 + 10 x(51)#51
      + 11 x(52)#52 + 10 x(53)#53 + 9 x(54)#54 + 17 x(55)#55 + 9 x(56)#56
      + 14 x(57)#57 + 10 x(58)#58 + 9 x(59)#59 + 11 x(60)#60 + 18 x(61)#61
      + 8 x(62)#62 + 10 x(63)#63 + 15 x(64)#64 + 9 x(65)#65 + 15 x(66)#66
      + 8 x(67)#67 + 13 x(68)#68 + 11 x(69)#69 + 10 x(70)#70 + 14 x(71)#71
      + 14 x(72)#72 + 10 x(73)#73 + 10 x(74)#74 + 13 x(75)#75 + 8 x(76)#76
      + 13 x(77)#77 + 13 x(78)#78 + 16 x(79)#79 + 9 x(80)#80 + 7 x(81)#81
      + 12 x(82)#82 + 14 x(83)#83 + 8 x(84)#84 + 6 x(85)#85 + 17 x(86)#86
      + 14 x(87)#87 + 9 x(88)#88 + 15 x(89)#89 + 6 x(90)#90 + 7 x(91)#91
      + 6 x(92)#92 + 9 x(93)#93 + 7 x(94)#94 + 11 x(95)#95 + 7 x(96)#96
      + 12 x(97)#97 + 13 x(98)#98 + 10 x(99)#99 <= 538
 c13: 9 x(0)#0 + 12 x(1)#1 + 12 x(2)#2 + 14 x(3)#3 + 6 x(4)#4 + 10 x(5)#5
      + 5 x(6)#6 + 17 x(7)#7 + 11 x(8)#8 + 12 x(9)#9 + 15 x(10)#10
      + 11 x(11)#11 + 11 x(12)#12 + 17 x(13)#13 + 8 x(14)#14 + 12 x(15)#15
      + 14 x(16)#16 + 12 x(17)#17 + 10 x(18)#18 + 11 x(19)#19 + 10 x(20)#20
      + 8 x(21)#21 + 9 x(22)#22 + 9 x(23)#23 + 10 x(24)#24 + 6 x(25)#25
      + 11 x(26)#26 + 7 x(27)#27 + 11 x(28)#28 + 8 x(29)#29 + 11 x(30)#30
      + 11 x(31)#31 + 19 x(32)#32 + 18 x(33)#33 + 6 x(34)#34 + 14 x(35)#35
      + 13 x(36)#36 + 7 x(37)#37 + 9 x(38)#38 + 7 x(39)#39 + 16 x(40)#40
      + 13 x(41)#41 + 15 x(42)#42 + 9 x(43)#43 + 7 x(44)#44 + 12 x(45)#45
      + 7 x(46)#46 + 6 x(47)#47 + 12 x(48)#48 + 16 x(49)#49 + 9 x(50)#50
      + 12 x(51)#51 + 12 x(52)#52 + 6 x(53)#53 + 12 x(54)#54 + 17 x(55)#55
      + 8 x(56)#56 + 16 x(57)#57 + 8 x(58)#58 + 10 x(59)#59 + 7 x(60)#60
      + 9 x(61)#61 + 13 x(62)#62 + 10 x(63)#63 + 17 x(64)#64 + 12 x(65)#65
      + 10 x(66)#66 + 7 x(67)#67 + 13 x(68)#68 + 7 x(69)#69 + 7 x(70)#70
      + 11 x(71)#71 + 11 x(72)#72 + 6 x(73)#73 + 10 x(74)#74 + 15 x(75)#75
      + 9 x(76)#76 + 8 x(77)#77 + 16 x(78)#78 + 12 x(79)#79 + 10 x(80)#80
      + 8 x(81)#81 + 11 x(82)#82 + 15 x(83)#83 + 7 x(84)#84 + 11 x(85)#85
      + 14 x(86)#86 + 16 x(87)#87 + 10 x(88)#88 + 9 x(89)#89 + 13 x(90)#90
      + 5 x(91)#91 + 11 x(92)#92 + 9 x(93)#93 + 9 x(94)#94 + 15 x(95)#95
      + 13 x(96)#96 + 8 x(97)#97 + 8 x(98)#98 + 12 x(99)#99 <= 540
 c14: 8 x(0)#0 + 12 x(1)#1 + 9 x(2)#2 + 11 x(3)#3 + 6 x(4)#4 + 11 x(5)#5
      + 8 x(6)#6 + 9 x(7)#7 + 12 x(8)#8 + 9 x(9)#9 + 14 x(10)#10 + 8 x(11)#11
      + 7 x(12)#12 + 17 x(13)#13 + 11 x(14)#14 + 15 x(15)#15 + 14 x(16)#16
      + 11 x(17)#17 + 8 x(18)#18 + 8 x(19)#19 + 11 x(20)#20 + 10 x(21)#21
      + 8 x(22)#22 + 10 x(23)#23 + 8 x(24)#24 + 7 x(25)#25 + 18 x(26)#26
      + 10 x(27)#27 + 11 x(28)#28 + 9 x(29)#29 + 11 x(30)#30 + 9 x(31)#31
      + 12 x(32)#32 + 16 x(33)#33 + 6 x(34)#34 + 13 x(35)#35 + 16 x(36)#36
      + 6 x(37)#37 + 10 x(38)#38 + 13 x(39)#39 + 10 x(40)#40 + 13 x(41)#41
      + 12 x(42)#42 + 8 x(43)#43 + 9 x(44)#44 + 10 x(45)#45 + 11 x(46)#46
      + 5 x(47)#47 + 15 x(48)#48 + 13 x(49)#49 + 10 x(50)#50 + 8 x(51)#51
      + 9 x(52)#52 + 7 x(53)#53 + 15 x(54)#54 + 12 x(55)#55 + 15 x(56)#56
      + 12 x(57)#57 + 5 x(58)#58 + 9 x(59)#59 + 7 x(60)#60 + 14 x(61)#61
      + 13 x(62)#62 + 5 x(63)#63 + 18 x(64)#64 + 7 x(65)#65 + 14 x(66)#66
      + 13 x(67)#67 + 16 x(68)#68 + 9 x(69)#69 + 8 x(70)#70 + 10 x(71)#71
      + 17 x(72)#72 + 6 x(73)#73 + 11 x(74)#74 + 12 x(75)#75 + 9 x(76)#76
      + 13 x(77)#77 + 14 x(78)#78 + 9 x(79)#79 + 11 x(80)#80 + 13 x(81)#81
      + 8 x(82)#82 + 16 x(83)#83 + 8 x(84)#84 + 10 x(85)#85 + 11 x(86)#86
      + 9 x(87)#87 + 12 x(88)#88 + 12 x(89)#89 + 9 x(90)#90 + 5 x(91)#91
      + 10 x(92)#92 + 11 x(93)#93 + 7 x(94)#94 + 14 x(95)#95 + 10 x(96)#96
      + 9 x(97)#97 + 9 x(98)#98 + 7 x(99)#99 <= 528
 c15: 9 x(0)#0 + 11 x(1)#1 + 13 x(2)#2 + 7 x(3)#3 + 5 x(4)#4 + 11 x(5)#5
      + 8 x(6)#6 + 17 x(7)#7 + 11 x(8)#8 + 7 x(9)#9 + 13 x(10)#10 + 13 x(11)#11
      + 10 x(12)#12 + 19 x(13)#13 + 13 x(14)#14 + 11 x(15)#15 + 17 x(16)#16
      + 6 x(17)#17 + 10 x(18)#18 + 8 x(19)#19 + 13 x(20)#20 + 7 x(21)#21
      + 6 x(22)#22 + 10 x(23)#23 + 6 x(24)#24 + 11 x(25)#25 + 15 x(26)#26
      + 8 x(27)#27 + 12 x(28)#28 + 5 x(29)#29 + 15 x(30)#30 + 11 x(31)#31
      + 18 x(32)#32 + 12 x(33)#33 + 10 x(34)#34 + 13 x(35)#35 + 13 x(36)#36
      + 10 x(37)#37 + 12 x(38)#38 + 13 x(39)#39 + 14 x(40)#40 + 15 x(41)#41
      + 10 x(42)#42 + 10 x(43)#43 + 8 x(44)#44 + 10 x(45)#45 + 6 x(46)#46
      + 8 x(47)#47 + 16 x(48)#48 + 14 x(49)#49 + 11 x(50)#50 + 8 x(51)#51
      + 14 x(52)#52 + 9 x(53)#53 + 8 x(54)#54 + 14 x(55)#55 + 12 x(56)#56
      + 16 x(57)#57 + 10 x(58)#58 + 7 x(59)#59 + 9 x(60)#60 + 14 x(61)#61
      + 15 x(62)#62 + 7 x(63)#63 + 18 x(64)#64 + 9 x(65)#65 + 9 x(66)#66
      + 9 x(67)#67 + 16 x(68)#68 + 10 x(69)#69 + 12 x(70)#70 + 11 x(71)#71
      + 19 x(72)#72 + 12 x(73)#73 + 11 x(74)#74 + 9 x(75)#75 + 15 x(76)#76
      + 8 x(77)#77 + 17 x(78)#78 + 13 x(79)#79 + 7 x(80)#80 + 12 x(81)#81
      + 16 x(82)#82 + 15 x(83)#83 + 10 x(84)#84 + 7 x(85)#85 + 12 x(86)#86
      + 11 x(87)#87 + 12 x(88)#88 + 17 x(89)#89 + 7 x(90)#90 + 6 x(91)#91
      + 9 x(92)#92 + 13 x(93)#93 + 9 x(94)#94 + 9 x(95)#95 + 11 x(96)#96
      + 14 x(97)#97 + 15 x(98)#98 + 10 x(99)#99 <= 562
Bounds
 0 <= x(0)#0 <= 1
 0 <= x(1)#1 <= 1
 0 <= x(2)#2 <= 1
 0 <= x(3)#3 <= 1
 0 <= x(4)#4 <= 1
 0 <= x(5)#5 <= 1
 0 <= x(6)#6 <= 1
 0 <= x(7)#7 <= 1
 0 <= x(8)#8 <= 1
 0 <= x(9)#9 <= 1
 0 <= x(10)#10 <= 1
 0 <= x(11)#11 <= 1
 0 <= x(12)#12 <= 1
 0 <= x(13)#13 <= 1
 0 <= x(14)#14 <= 1
 0 <= x(15)#15 <= 1
 0 <= x(16)#16 <= 1
 0 <= x(17)#17 <= 1
 0 <= x(18)#18 <= 1
 0 <= x(19)#19 <= 1
 0 <= x(20)#20 <= 1
 0 <= x(21)#21 <= 1
 0 <= x(22)#22 <= 1
 0 <= x(23)#23 <= 1
 0 <= x(24)#24 <= 1
 0 <= x(25)#25 <= 1
 0 <= x(26)#26 <= 1
 0 <= x(27)#27 <= 1
 0 <= x(28)#28 <= 1
 0 <= x(29)#29 <= 1
 0 <= x(30)#30 <= 1
 0 <= x(31)#31 <= 1
 0 <= x(32)#32 <= 1
 0 <= x(33)#33 <= 1
 0 <= x(34)#34 <= 1
 0 <= x(35)#35 <= 1
 0 <= x(36)#36 <= 1
 0 <= x(37)#37 <= 1
 0 <= x(38)#38 <= 1
 0 <= x(39)#39 <= 1
 0 <= x(40)#40 <= 1
 0 <= x(41)#41 <= 1
 0 <= x(42)#42 <= 1
 0 <= x(43)#43 <= 1
 0 <= x(44)#44 <= 1
 0 <= x(45)#45 <= 1
 0 <= x(46)#46 <= 1
 0 <= x(47)#47 <= 1
 0 <= x(48)#48 <= 1
 0 <= x(49)#49 <= 1
 0 <= x(50)#50 <= 1
 0 <= x(51)#51 <= 1
 0 <= x(52)#52 <= 1
 0 <= x(53)#53 <= 1
 0 <= x(54)#54 <= 1
 0 <= x(55)#55 <= 1
 0 <= x(56)#56 <= 1
 0 <= x(57)#57 <= 1
 0 <= x(58)#58 <= 1
 0 <= x(59)#59 <= 1
 0 <= x(60)#60 <= 1
 0 <= x(61)#61 <= 1
 0 <= x(62)#62 <= 1
 0 <= x(63)#63 <= 1
 0 <= x(64)#64 <= 1
 0 <= x(65)#65 <= 1
 0 <= x(66)#66 <= 1
 0 <= x(67)#67 <= 1
 0 <= x(68)#68 <= 1
 0 <= x(69)#69 <= 1
 0 <= x(70)#70 <= 1
 0 <= x(71)#71 <= 1
 0 <= x(72)#72 <= 1
 0 <= x(73)#73 <= 1
 0 <= x(74)#74 <= 1
 0 <= x(75)#75 <= 1
 0 <= x(76)#76 <= 1
 0 <= x(77)#77 <= 1
 0 <= x(78)#78 <= 1
 0 <= x(79)#79 <= 1
 0 <= x(80)#80 <= 1
 0 <= x(81)#81 <= 1
 0 <= x(82)#82 <= 1
 0 <= x(83)#83 <= 1
 0 <= x(84)#84 <= 1
 0 <= x(85)#85 <= 1
 0 <= x(86)#86 <= 1
 0 <= x(87)#87 <= 1
 0 <= x(88)#88 <= 1
 0 <= x(89)#89 <= 1
 0 <= x(90)#90 <= 1
 0 <= x(91)#91 <= 1
 0 <= x(92)#92 <= 1
 0 <= x(93)#93 <= 1
 0 <= x(94)#94 <= 1
 0 <= x(95)#95 <= 1
 0 <= x(96)#96 <= 1
 0 <= x(97)#97 <= 1
 0 <= x(98)#98 <= 1
 0 <= x(99)#99 <= 1
Generals
 x(0)#0  x(1)#1  x(2)#2  x(3)#3  x(4)#4  x(5)#5  x(6)#6  x(7)#7  x(8)#8 
 x(9)#9  x(10)#10  x(11)#11  x(12)#12  x(13)#13  x(14)#14  x(15)#15  x(16)#16 
 x(17)#17  x(18)#18  x(19)#19  x(20)#20  x(21)#21  x(22)#22  x(23)#23 
 x(24)#24  x(25)#25  x(26)#26  x(27)#27  x(28)#28  x(29)#29  x(30)#30 
 x(31)#31  x(32)#32  x(33)#33  x(34)#34  x(35)#35  x(36)#36  x(37)#37 
 x(38)#38  x(39)#39  x(40)#40  x(41)#41  x(42)#42  x(43)#43  x(44)#44 
 x(45)#45  x(46)#46  x(47)#47  x(48)#48  x(49)#49  x(50)#50  x(51)#51 
 x(52)#52  x(53)#53  x(54)#54  x(55)#55  x(56)#56  x(57)#57  x(58)#58 
 x(59)#59  x(60)#60  x(61)#61  x(62)#62  x(63)#63  x(64)#64  x(65)#65 
 x(66)#66  x(67)#67  x(68)#68  x(69)#69  x(70)#70  x(71)#71  x(72)#72 
 x(73)#73  x(74)#74  x(75)#75  x(76)#76  x(77)#77  x(78)#78  x(79)#79 
 x(80)#80  x(81)#81  x(82)#82  x(83)#83  x(84)#84  x(85)#85  x(86)#86 
 x(87)#87  x(88)#88  x(89)#89  x(90)#90  x(91)#91  x(92)#92  x(93)#93 
 x(94)#94  x(95)#95  x(96)#96  x(97)#97  x(98)#98  x(99)#99 
End
